Minimize
	value: tt

Subject to
tt + 2000 s_1_1 > 0
tt - t_1_1 - 2000.000000 s_1_1 > -1995.126700
tt + 2000 s_2_1 > 0
tt - t_2_1 - 2000.000000 s_2_1 > -1995.733900
tt + 2000 s_1_2 > 0
tt - t_1_2 - 2000.000000 s_1_2 > -1996.262000
tt + 2000 s_2_2 > 0
tt - t_2_2 - 2000.000000 s_2_2 > -1998.191900
tt + 2000 s_1_3 > 0
tt - t_1_3 - 2000.000000 s_1_3 > -1995.049300
tt + 2000 s_2_3 > 0
tt - t_2_3 - 2000.000000 s_2_3 > -1996.453800
tt + 2000 s_1_4 > 0
tt - t_1_4 - 2000.000000 s_1_4 > -1992.050400
tt + 2000 s_2_4 > 0
tt - t_2_4 - 2000.000000 s_2_4 > -1991.815400
tt + 2000 s_1_5 > 0
tt - t_1_5 - 2050.909876 s_1_5 + 50.909876 s_1_2 > -1999.698222
tt + 2000 s_2_5 > 0
tt - t_2_5 - 2101.819752 s_2_5 + 101.819752 s_2_2 > -1998.739000
s_1_1 + s_2_1  = 1
s_1_2 + s_2_2  = 1
s_1_3 + s_2_3  = 1
s_1_4 + s_2_4  = 1
s_1_5 + s_2_5  = 1
t_1_1 - t_1_2 + 2000.000000 u_1_1_2 > 3.738000
t_1_2 - t_1_1 - 2000.000000 u_1_1_2 > -1995.126700
t_2_1 - t_2_2 + 2000.000000 u_2_1_2 > 1.808100
t_2_2 - t_2_1 - 2000.000000 u_2_1_2 > -1995.733900
t_1_1 - t_1_3 + 2000.000000 u_1_1_3 > 4.950700
t_1_3 - t_1_1 - 2000.000000 u_1_1_3 > -1995.126700
t_2_1 - t_2_3 + 2000.000000 u_2_1_3 > 3.546200
t_2_3 - t_2_1 - 2000.000000 u_2_1_3 > -1995.733900
t_1_1 - t_1_4 + 2000.000000 u_1_1_4 > 7.949600
t_1_4 - t_1_1 - 2000.000000 u_1_1_4 > -1995.126700
t_2_1 - t_2_4 + 2000.000000 u_2_1_4 > 8.184600
t_2_4 - t_2_1 - 2000.000000 u_2_1_4 > -1995.733900
t_1_5 - t_1_1 - 2000.000000 s_1_1 > -1991.171967
t_1_5 - t_2_1 - 2000.000000 s_2_1 > -1987.824433
t_2_5 - t_1_1 - 2000.000000 s_1_1 > -1991.171967
t_2_5 - t_2_1 - 2000.000000 s_2_1 > -1987.824433
t_1_2 - t_1_1 + 2000.000000 u_1_2_1 > 4.873300
t_1_1 - t_1_2 - 2000.000000 u_1_2_1 > -1996.262000
t_2_2 - t_2_1 + 2000.000000 u_2_2_1 > 4.266100
t_2_1 - t_2_2 - 2000.000000 u_2_2_1 > -1998.191900
t_1_2 - t_1_3 + 2000.000000 u_1_2_3 > 4.950700
t_1_3 - t_1_2 - 2000.000000 u_1_2_3 > -1996.262000
t_2_2 - t_2_3 + 2000.000000 u_2_2_3 > 3.546200
t_2_3 - t_2_2 - 2000.000000 u_2_2_3 > -1998.191900
t_1_2 - t_1_4 + 2000.000000 u_1_2_4 > 7.949600
t_1_4 - t_1_2 - 2000.000000 u_1_2_4 > -1996.262000
t_2_2 - t_2_4 + 2000.000000 u_2_2_4 > 8.184600
t_2_4 - t_2_2 - 2000.000000 u_2_2_4 > -1998.191900
t_1_5 - t_1_2 - 2000.000000 s_1_2 > -1992.307267
t_1_5 - t_2_2 - 2000.000000 s_2_2 > -1990.282433
t_2_5 - t_1_2 - 2000.000000 s_1_2 > -1992.307267
t_2_5 - t_2_2 - 2000.000000 s_2_2 > -1990.282433
t_1_3 - t_1_1 + 2000.000000 u_1_3_1 > 4.873300
t_1_1 - t_1_3 - 2000.000000 u_1_3_1 > -1995.049300
t_2_3 - t_2_1 + 2000.000000 u_2_3_1 > 4.266100
t_2_1 - t_2_3 - 2000.000000 u_2_3_1 > -1996.453800
t_1_3 - t_1_2 + 2000.000000 u_1_3_2 > 3.738000
t_1_2 - t_1_3 - 2000.000000 u_1_3_2 > -1995.049300
t_2_3 - t_2_2 + 2000.000000 u_2_3_2 > 1.808100
t_2_2 - t_2_3 - 2000.000000 u_2_3_2 > -1996.453800
t_1_3 - t_1_4 + 2000.000000 u_1_3_4 > 7.949600
t_1_4 - t_1_3 - 2000.000000 u_1_3_4 > -1995.049300
t_2_3 - t_2_4 + 2000.000000 u_2_3_4 > 8.184600
t_2_4 - t_2_3 - 2000.000000 u_2_3_4 > -1996.453800
t_1_5 - t_1_3 - 2000.000000 s_1_3 > -1991.094567
t_1_5 - t_2_3 - 2000.000000 s_2_3 > -1988.544333
t_2_5 - t_1_3 - 2000.000000 s_1_3 > -1991.094567
t_2_5 - t_2_3 - 2000.000000 s_2_3 > -1988.544333
t_1_4 - t_1_1 + 2000.000000 u_1_4_1 > 4.873300
t_1_1 - t_1_4 - 2000.000000 u_1_4_1 > -1992.050400
t_2_4 - t_2_1 + 2000.000000 u_2_4_1 > 4.266100
t_2_1 - t_2_4 - 2000.000000 u_2_4_1 > -1991.815400
t_1_4 - t_1_2 + 2000.000000 u_1_4_2 > 3.738000
t_1_2 - t_1_4 - 2000.000000 u_1_4_2 > -1992.050400
t_2_4 - t_2_2 + 2000.000000 u_2_4_2 > 1.808100
t_2_2 - t_2_4 - 2000.000000 u_2_4_2 > -1991.815400
t_1_4 - t_1_3 + 2000.000000 u_1_4_3 > 4.950700
t_1_3 - t_1_4 - 2000.000000 u_1_4_3 > -1992.050400
t_2_4 - t_2_3 + 2000.000000 u_2_4_3 > 3.546200
t_2_3 - t_2_4 - 2000.000000 u_2_4_3 > -1991.815400
t_1_5 - t_1_4 - 2000.000000 s_1_4 > -1988.095667
t_1_5 - t_2_4 - 2000.000000 s_2_4 > -1983.905933
t_2_5 - t_1_4 - 2000.000000 s_1_4 > -1988.095667
t_2_5 - t_2_4 - 2000.000000 s_2_4 > -1983.905933
t_1_5 - t_1_1 - 2000.000000 s_1_1 > -1991.171967
t_1_5 - t_2_1 - 2000.000000 s_2_1 > -1987.824433
t_2_5 - t_1_1 - 2000.000000 s_1_1 > -1991.171967
t_2_5 - t_2_1 - 2000.000000 s_2_1 > -1987.824433
t_1_5 - t_1_2 - 2000.000000 s_1_2 > -1992.307267
t_1_5 - t_2_2 - 2000.000000 s_2_2 > -1990.282433
t_2_5 - t_1_2 - 2000.000000 s_1_2 > -1992.307267
t_2_5 - t_2_2 - 2000.000000 s_2_2 > -1990.282433
t_1_5 - t_1_3 - 2000.000000 s_1_3 > -1991.094567
t_1_5 - t_2_3 - 2000.000000 s_2_3 > -1988.544333
t_2_5 - t_1_3 - 2000.000000 s_1_3 > -1991.094567
t_2_5 - t_2_3 - 2000.000000 s_2_3 > -1988.544333
t_1_5 - t_1_4 - 2000.000000 s_1_4 > -1988.095667
t_1_5 - t_2_4 - 2000.000000 s_2_4 > -1983.905933
t_2_5 - t_1_4 - 2000.000000 s_1_4 > -1988.095667
t_2_5 - t_2_4 - 2000.000000 s_2_4 > -1983.905933
Binary
s_1_1
s_2_1
s_1_2
s_2_2
s_1_3
s_2_3
s_1_4
s_2_4
s_1_5
s_2_5
u_1_1_2
u_2_1_2
u_1_1_3
u_2_1_3
u_1_1_4
u_2_1_4
u_1_2_1
u_2_2_1
u_1_2_3
u_2_2_3
u_1_2_4
u_2_2_4
u_1_3_1
u_2_3_1
u_1_3_2
u_2_3_2
u_1_3_4
u_2_3_4
u_1_4_1
u_2_4_1
u_1_4_2
u_2_4_2
u_1_4_3
u_2_4_3

End
